23 -34 -35 0
26 29 30 -23 -37 0
-34 -35 -36 -37 0
-26 34 -35 -36 0
-35 -36 -37 0
d -34 -35 -36 -37 0
26 34 -37 0
8 35 -37 0
-36 -37 0
d -35 -36 -37 0
21 25 26 0
26 -37 0
d 26 34 -37 0
d 29 30 26 -23 -37 0
-37 0
-21 -26 0
d -21 -23 -26 0
-26 0
9 0
21 0
-36 0
8 0
-25 0
-35 0
20 0
19 0
7 0
18 0
-34 0
-24 0
-23 0
17 0
6 0
29 0
30 0
28 0
31 0
32 0
-22 0
-33 0
-2 0
-3 0
-1 0
-4 0
-5 0
10 0
0
